<number of tasks>
50

<cycle time>
1000

<order strength>
0.896


<task times>
1 440
2 472
3 320
4 468
5 501
6 586
7 686
8 494
9 274
10 666
11 580
12 374
13 393
14 560
15 443
16 555
17 467
18 408
19 694
20 446
21 564
22 346
23 594
24 416
25 518
26 578
27 607
28 443
29 414
30 711
31 552
32 589
33 502
34 726
35 160
36 342
37 705
38 615
39 397
40 529
41 526
42 711
43 434
44 645
45 332
46 461
47 409
48 249
49 388
50 497

<precedence relations>
1,4
1,5
2,4
2,5
3,4
3,5
4,6
4,7
4,8
5,6
5,7
5,8
6,9
6,10
7,9
7,10
8,9
8,10
9,11
9,12
9,13
10,11
10,12
10,13
11,14
11,15
11,16
11,17
12,14
12,15
12,16
12,17
13,14
13,15
13,16
13,17
14,18
14,19
14,20
15,18
15,19
15,20
16,18
16,19
16,20
17,18
17,19
17,20
18,21
18,30
18,31
19,28
20,21
20,22
20,23
21,32
21,33
22,24
22,25
23,25
23,26
24,33
25,27
25,28
26,27
26,28
27,29
27,30
27,31
28,29
28,31
29,32
29,33
30,32
30,33
31,32
31,33
32,37
33,34
33,35
33,36
33,39
34,41
34,42
35,40
36,38
37,39
38,41
38,42
39,40
39,41
40,45
40,46
40,47
41,43
42,44
43,47
44,45
44,46
45,50
46,50
47,48
47,49

<end>
